p tw 26 39
1 2
1 17
1 23
2 7
2 9
3 16
3 25
3 26
4 5
4 18
4 21
5 19
5 25
6 9
6 14
6 19
7 22
7 25
8 11
8 17
8 20
9 12
10 13
10 14
10 24
11 15
11 20
12 15
12 22
13 18
13 23
14 22
15 21
16 23
16 26
17 19
18 24
20 26
21 24
